(declare-fun v33 () Int)
(declare-fun v34 () Int)
(declare-fun v35 () Int)
(declare-fun v36 () Int)
(declare-fun v37 () Int)
(declare-fun v38 () Int)
(declare-fun v42 () Int)
(declare-fun v39 () Int)
(declare-fun v40 () Int)
(declare-fun v41 () Int)
(declare-fun v43 () Int)
(declare-fun v44 () Bool)
(declare-fun v29 () Bool)
(declare-fun v30 () Bool)
(declare-fun v32 () Bool)
(declare-fun v23 () Int)
(declare-fun v25 () Int)
(declare-fun v26 () Int)
(declare-fun v16 () Int)
(declare-fun v18 () Int)
(declare-fun v19 () Int)
(declare-fun v9 () Int)
(declare-fun v11 () Int)
(declare-fun v12 () Int)
(declare-fun v3 () Int)
(declare-fun v4 () Int)
(declare-fun v5 () Int)

(assert (= v33 10))
(assert (= v34 5))
(assert (= v35 (div v33 v34)))
(assert (= v36 4))
(assert (= v37 5))
(assert (= v38 (- v36 v37)))
(assert (= v42 v38))
(assert (= v39 v38))
(assert (= v40 2))
(assert (= v41 (mod v39 v40)))
(assert (= v43 v41))
(assert (= v44 (< v35 v43)))
(assert (= v29 true))
(assert (= v30 false))
(assert (v32 (=> (v30) (v31) )))
(assert (= v23 v26))
(assert (= v25 v26))
(assert (= v26 (+ v23 v25)))
(assert (= v16 v19))
(assert (= v18 v19))
(assert (= v19 (+ v16 v18)))
(assert (= v9 v12))
(assert (= v11 v12))
(assert (= v12 (+ v9 v11)))
(assert (= v3 4))
(assert (= v4 1))
(assert (= v5 (+ v3 v4)))
(check-sat)
(get-model)
